
        $ From http://www.csplib.org/Problems/prob009/data/helmut.pdf
        $ Problem number 139
        $ Sequence length : 25
        language ESSENCE' 1.0
        letting sizemaster be 441
        letting sizes be sequence(5,6,7,16,18,23,24,27,38,39,47,51,52,62,66,72,80,84,92,101,102,118,120,219,222)
        